CST06
Position Depot: Center
Horizon for Depot: Small
Position of customers: Cluster
Distribution of the demand: Small
Width of time windows: Tight
Distribution of the service: Small

VEHICLE 
NUMBER 	 CAPACITY 
 8 	 	 46 
 
CUSTOMER
CUST NO. 	 XCOORD.  	 YCOORD. 	 DEMAND 	 READY TIME 	 DUE DATE 	 SERVICE TIME 
 0 	 	 500 	 	 500 	 	 0 	 	 0 	 	 1603 	 	 0 
  1 	 	 933 	 	 276 	 	 7 	 	 368 	 	 536 	 	 81 
  2 	 	 946 	 	 923 	 	 7 	 	 695 	 	 840 	 	 68 
  3 	 	 397 	 	 314 	 	 5 	 	 982 	 	 1114 	 	 67 
  4 	 	 360 	 	 2 	 	 10 	 	 1483 	 	 1588 	 	 67 
  5 	 	 749 	 	 832 	 	 6 	 	 1237 	 	 1342 	 	 57 
  6 	 	 182 	 	 825 	 	 7 	 	 1104 	 	 1157 	 	 83 
  7 	 	 330 	 	 0 	 	 6 	 	 680 	 	 840 	 	 52 
  8 	 	 892 	 	 848 	 	 5 	 	 479 	 	 576 	 	 96 
  9 	 	 696 	 	 756 	 	 10 	 	 1080 	 	 1151 	 	 68 
  10 	 	 944 	 	 270 	 	 7 	 	 454 	 	 550 	 	 77 
  11 	 	 814 	 	 960 	 	 6 	 	 448 	 	 612 	 	 99 
  12 	 	 417 	 	 494 	 	 8 	 	 641 	 	 827 	 	 97 
  13 	 	 699 	 	 863 	 	 5 	 	 307 	 	 455 	 	 99 
  14 	 	 637 	 	 721 	 	 7 	 	 587 	 	 728 	 	 86 
  15 	 	 409 	 	 99 	 	 7 	 	 797 	 	 964 	 	 54 
  16 	 	 146 	 	 857 	 	 5 	 	 960 	 	 1116 	 	 61 
  17 	 	 59 	 	 841 	 	 8 	 	 1469 	 	 1529 	 	 83 
  18 	 	 901 	 	 980 	 	 10 	 	 1502 	 	 1603 	 	 53 
  19 	 	 334 	 	 197 	 	 10 	 	 181 	 	 380 	 	 76 
  20 	 	 993 	 	 172 	 	 10 	 	 691 	 	 847 	 	 86 
  21 	 	 369 	 	 267 	 	 10 	 	 800 	 	 899 	 	 88 
  22 	 	 912 	 	 322 	 	 8 	 	 1322 	 	 1500 	 	 93 
  23 	 	 99 	 	 861 	 	 6 	 	 1068 	 	 1194 	 	 59 
  24 	 	 424 	 	 257 	 	 10 	 	 286 	 	 459 	 	 95 
  25 	 	 834 	 	 273 	 	 8 	 	 1214 	 	 1364 	 	 75 
  26 	 	 975 	 	 913 	 	 8 	 	 511 	 	 692 	 	 73 
  27 	 	 754 	 	 882 	 	 5 	 	 1216 	 	 1288 	 	 89 
  28 	 	 929 	 	 928 	 	 7 	 	 1407 	 	 1524 	 	 63 
  29 	 	 726 	 	 844 	 	 8 	 	 1237 	 	 1417 	 	 59 
  30 	 	 302 	 	 703 	 	 7 	 	 545 	 	 623 	 	 98 
  31 	 	 971 	 	 942 	 	 8 	 	 651 	 	 719 	 	 99 
  32 	 	 943 	 	 962 	 	 8 	 	 1421 	 	 1574 	 	 80 
  33 	 	 999 	 	 831 	 	 10 	 	 1294 	 	 1348 	 	 98 
  34 	 	 762 	 	 940 	 	 9 	 	 658 	 	 728 	 	 100 
  35 	 	 940 	 	 284 	 	 10 	 	 341 	 	 539 	 	 94 
  36 	 	 750 	 	 803 	 	 7 	 	 345 	 	 432 	 	 52 
  37 	 	 95 	 	 822 	 	 7 	 	 962 	 	 1045 	 	 74 
  38 	 	 919 	 	 908 	 	 5 	 	 1535 	 	 1598 	 	 55 
  39 	 	 936 	 	 264 	 	 7 	 	 1111 	 	 1305 	 	 72 
  40 	 	 889 	 	 883 	 	 10 	 	 617 	 	 715 	 	 89 
  41 	 	 242 	 	 721 	 	 8 	 	 1178 	 	 1252 	 	 83 
  42 	 	 490 	 	 299 	 	 6 	 	 142 	 	 221 	 	 66 
  43 	 	 330 	 	 88 	 	 5 	 	 1438 	 	 1603 	 	 81 
  44 	 	 948 	 	 867 	 	 6 	 	 568 	 	 667 	 	 52 
  45 	 	 353 	 	 261 	 	 6 	 	 867 	 	 1041 	 	 100 
  46 	 	 429 	 	 285 	 	 8 	 	 370 	 	 542 	 	 92 
  47 	 	 979 	 	 907 	 	 10 	 	 1277 	 	 1346 	 	 63 
  48 	 	 199 	 	 842 	 	 7 	 	 1153 	 	 1300 	 	 80 
  49 	 	 478 	 	 284 	 	 6 	 	 664 	 	 838 	 	 73 
  50 	 	 346 	 	 240 	 	 10 	 	 496 	 	 658 	 	 96 
 